(set-info :source |printed by MathSAT|)
(declare-fun _OK_ () Bool)
(declare-fun call_Controller.plus () Bool)
(declare-fun call_Controller.speed () Int)
(declare-fun plus () Bool)
(declare-fun realistic () Bool)
(declare-fun call_Environment.flby () Bool)
(declare-fun call_Controller.flby () Int)
(declare-fun param_diff () Int)
(declare-fun call_Environment.flby2 () Bool)
(declare-fun call_Controller.minus () Bool)
(declare-fun minus () Bool)
(declare-fun call_Property.ok () Bool)
(declare-fun call_Property.cpt () Int)
(declare-fun call_Environment.ite2 () Bool)
(declare-fun call_Environment.ite () Bool)
(declare-fun speed () Int)
(declare-fun call_Sofar.Sofar () Bool)
(declare-fun call_Property.ite () Int)
(declare-fun call_Property.flby2 () Bool)
(declare-fun call_Environment.ok () Bool)
(declare-fun call_Property.flby () Int)
(declare-fun call_Sofar.flby () Bool)
(declare-fun call_Property.acceptable () Bool)
(define-fun .def_305 () Bool (<= speed 12))
(define-fun .def_304 () Bool (<= 8 speed))
(define-fun .def_306 () Bool (and .def_304 .def_305))
(define-fun .def_307 () Bool (= call_Property.acceptable .def_306))
(define-fun .def_302 () Bool (= call_Property.flby call_Property.cpt))
(define-fun .def_299 () Bool (= call_Property.flby2 call_Property.ok))
(define-fun .def_297 () Bool (= call_Sofar.flby call_Sofar.Sofar))
(define-fun .def_295 () Bool (or call_Environment.flby2 call_Environment.ite2))
(define-fun .def_293 () Bool (or call_Environment.flby call_Environment.ite))
(define-fun .def_287 () Bool (<= param_diff 4))
(define-fun .def_286 () Bool (<= (- 4) param_diff))
(define-fun .def_288 () Bool (and .def_286 .def_287))
(define-fun .def_289 () Bool (and call_Environment.ite .def_288))
(define-fun .def_290 () Bool (and call_Environment.ite2 .def_289))
(define-fun .def_291 () Bool (= call_Environment.ok .def_290))
(define-fun .def_283 () Bool (<= 11 call_Controller.speed))
(define-fun .def_284 () Bool (= call_Controller.minus .def_283))
(define-fun .def_280 () Bool (<= call_Controller.speed 9))
(define-fun .def_281 () Bool (= call_Controller.plus .def_280))
(define-fun .def_278 () Bool (= call_Controller.flby call_Controller.speed))
(define-fun .def_274 () Bool (not call_Environment.flby))
(define-fun .def_271 () Bool (<= 1 param_diff))
(define-fun .def_273 () Bool (= .def_271 call_Environment.ite))
(define-fun .def_275 () Bool (or .def_273 .def_274))
(define-fun .def_267 () Bool (<= param_diff (- 1)))
(define-fun .def_269 () Bool (= .def_267 call_Environment.ite2))
(define-fun .def_232 () Bool (not call_Environment.flby2))
(define-fun .def_270 () Bool (or .def_232 .def_269))
(define-fun .def_276 () Bool (and .def_270 .def_275))
(define-fun .def_264 () Bool (= realistic call_Environment.ok))
(define-fun .def_261 () Bool (= minus call_Controller.minus))
(define-fun .def_257 () Bool (= plus call_Controller.plus))
(define-fun .def_253 () Bool (= speed call_Controller.speed))
(define-fun .def_248 () Bool (not call_Sofar.Sofar))
(define-fun .def_250 () Bool (or .def_248 call_Property.ok))
(define-fun .def_251 () Bool (= _OK_ .def_250))
(define-fun .def_254 () Bool (and .def_251 .def_253))
(define-fun .def_258 () Bool (and .def_254 .def_257))
(define-fun .def_262 () Bool (and .def_258 .def_261))
(define-fun .def_265 () Bool (and .def_262 .def_264))
(define-fun .def_277 () Bool (and .def_265 .def_276))
(define-fun .def_279 () Bool (and .def_277 .def_278))
(define-fun .def_282 () Bool (and .def_279 .def_281))
(define-fun .def_285 () Bool (and .def_282 .def_284))
(define-fun .def_292 () Bool (and .def_285 .def_291))
(define-fun .def_294 () Bool (and .def_292 .def_293))
(define-fun .def_296 () Bool (and .def_294 .def_295))
(define-fun .def_298 () Bool (and .def_296 .def_297))
(define-fun .def_300 () Bool (and .def_298 .def_299))
(define-fun .def_303 () Bool (and .def_300 .def_302))
(define-fun .def_308 () Bool (and .def_303 .def_307))
(define-fun .def_242 () Bool (= call_Property.flby 0))
(define-fun .def_238 () Bool (= call_Property.ite 0))
(define-fun .def_236 () Bool (not call_Property.acceptable))
(define-fun .def_239 () Bool (or .def_236 .def_238))
(define-fun .def_228 () Bool (= call_Controller.flby 0))
(define-fun .def_230 () Bool (and .def_228 call_Environment.flby))
(define-fun .def_233 () Bool (and .def_230 .def_232))
(define-fun .def_222 () Bool (<= 16 speed))
(define-fun .def_223 () Bool (not .def_222))
(define-fun .def_219 () Bool (<= 0 speed))
(define-fun .def_221 () Bool (and .def_219 realistic))
(define-fun .def_224 () Bool (and .def_221 .def_223))
(define-fun .def_226 () Bool (= .def_224 call_Sofar.flby))
(define-fun .def_234 () Bool (and .def_226 .def_233))
(define-fun .def_240 () Bool (and .def_234 .def_239))
(define-fun .def_243 () Bool (and .def_240 .def_242))
(define-fun .def_245 () Bool (and .def_243 call_Property.flby2))
(define-fun .def_309 () Bool (and .def_245 .def_308))
(assert .def_309)
